
Gurobi 9.0.1 (linux64) logging started Thu Apr 30 06:04:49 2020

Gurobi Optimizer version 9.0.1 build v9.0.1rc0 (linux64)
Optimize a model with 2058 rows, 2120 columns and 19760 nonzeros
Model fingerprint: 0x965426ac
Variable types: 0 continuous, 2120 integer (2106 binary)
Coefficient statistics:
  Matrix range     [1e+00, 7e+00]
  Objective range  [1e+00, 1e+02]
  Bounds range     [1e+00, 1e+00]
  RHS range        [1e+00, 1e+00]

User MIP start produced solution with objective 557 (0.01s)
Loaded user MIP start with objective 557

Presolve removed 630 rows and 736 columns
Presolve time: 0.13s
Presolved: 1428 rows, 1384 columns, 14632 nonzeros
Variable types: 0 continuous, 1384 integer (1372 binary)

Root relaxation: objective 3.649740e+02, 1201 iterations, 0.10 seconds

    Nodes    |    Current Node    |     Objective Bounds      |     Work
 Expl Unexpl |  Obj  Depth IntInf | Incumbent    BestBd   Gap | It/Node Time

     0     0  364.97398    0  452  557.00000  364.97398  34.5%     -    0s
     0     0  392.02901    0  414  557.00000  392.02901  29.6%     -    0s
     0     0  392.25818    0  417  557.00000  392.25818  29.6%     -    0s
     0     0  392.26068    0  417  557.00000  392.26068  29.6%     -    0s
     0     0  396.05210    0  413  557.00000  396.05210  28.9%     -    1s
     0     0  396.21992    0  410  557.00000  396.21992  28.9%     -    1s
     0     0  396.30734    0  413  557.00000  396.30734  28.8%     -    1s
     0     0  396.31030    0  417  557.00000  396.31030  28.8%     -    1s
     0     0  399.04563    0  447  557.00000  399.04563  28.4%     -    1s
     0     0  399.63680    0  441  557.00000  399.63680  28.3%     -    2s
     0     0  399.73368    0  447  557.00000  399.73368  28.2%     -    2s
     0     0  399.73749    0  450  557.00000  399.73749  28.2%     -    2s
     0     0  401.83161    0  454  557.00000  401.83161  27.9%     -    2s
     0     0  402.19539    0  432  557.00000  402.19539  27.8%     -    2s
     0     0  402.21223    0  432  557.00000  402.21223  27.8%     -    2s
     0     0  403.93755    0  433  557.00000  403.93755  27.5%     -    2s
     0     0  404.01135    0  444  557.00000  404.01135  27.5%     -    3s
     0     0  404.08190    0  449  557.00000  404.08190  27.5%     -    3s
     0     0  404.09281    0  452  557.00000  404.09281  27.5%     -    3s
     0     0  405.31474    0  445  557.00000  405.31474  27.2%     -    3s
     0     0  405.53239    0  453  557.00000  405.53239  27.2%     -    3s
     0     0  405.53669    0  455  557.00000  405.53669  27.2%     -    3s
     0     0  406.30586    0  452  557.00000  406.30586  27.1%     -    3s
     0     0  406.42354    0  448  557.00000  406.42354  27.0%     -    3s
     0     0  406.47240    0  461  557.00000  406.47240  27.0%     -    3s
     0     0  406.49140    0  459  557.00000  406.49140  27.0%     -    3s
     0     0  406.57418    0  463  557.00000  406.57418  27.0%     -    3s
     0     0  406.57418    0  463  557.00000  406.57418  27.0%     -    4s
     0     2  406.78783    0  463  557.00000  406.78783  27.0%     -    4s
     6     8  427.02816    3  353  557.00000  408.63573  26.6%   552    5s
H   54    54                     548.0000000  409.86212  25.2%   434    8s
H   81    70                     541.0000000  409.86212  24.2%   370   10s
H  162    85                     492.0000000  409.86212  16.7%   346   14s
   173    90  464.15083    7  285  492.00000  415.52262  15.5%   361   15s
   289   153  432.03864    9  398  492.00000  418.01949  15.0%   340   20s
H  324   111                     468.0000000  418.01949  10.7%   375   24s
   341   116  423.84230    3  354  468.00000  418.43406  10.6%   369   25s
   444   144  443.44994   10  370  468.00000  426.28429  8.91%   336   30s
   514   148  442.20955    5  416  468.00000  427.64239  8.62%   322   35s
   527   157  449.39737   11  486  468.00000  427.64239  8.62%   314   40s
   532   162  427.64239   15  458  468.00000  427.64239  8.62%   329   45s
   544   170  427.64239   21  450  468.00000  427.64239  8.62%   340   50s
   598   177  466.34921   24  261  468.00000  427.64239  8.62%   348   55s
   699   157  436.42002   17  383  468.00000  427.64239  8.62%   337   60s
   808   129  436.64412   18  354  468.00000  436.07043  6.82%   326   65s
   931   101  448.73059   19  405  468.00000  439.42312  6.11%   316   70s
  1016    70  461.45192   24  322  468.00000  444.79289  4.96%   316   75s
  1095    81  466.51726   32  160  468.00000  445.66836  4.77%   311   80s
  1189    97  462.77244   20  374  468.00000  447.07575  4.47%   303   85s
  1337    53     cutoff   26       468.00000  457.88876  2.16%   291   90s

Cutting planes:
  Gomory: 2
  MIR: 15
  Flow cover: 87
  Inf proof: 3
  Zero half: 79
  RLT: 330

Explored 1628 nodes (419198 simplex iterations) in 93.85 seconds
Thread count was 1 (of 40 available processors)

Solution count 5: 468 492 541 ... 557

Optimal solution found (tolerance 1.00e-04)
Best objective 4.680000000000e+02, best bound 4.680000000000e+02, gap 0.0000%

User-callback calls 11966, time in user-callback 0.01 sec
